60
1 0 31
2 0 41
2 1 25
3 0 91
3 1 22
3 2 69
4 0 27
4 1 34
4 2 99
4 3 29
5 0 88
5 1 39
5 2 3
5 3 62
5 4 70
6 0 88
6 1 79
6 2 36
6 3 84
6 4 75
6 5 78
7 0 97
7 1 70
7 2 51
7 3 39
7 4 92
7 5 55
7 6 9
8 0 55
8 1 29
8 2 53
8 3 67
8 4 84
8 5 26
8 6 11
8 7 22
9 0 41
9 1 58
9 2 23
9 3 98
9 4 68
9 5 92
9 6 64
9 7 88
9 8 97
10 0 95
10 1 9
10 2 80
10 3 32
10 4 34
10 5 49
10 6 15
10 7 24
10 8 6
10 9 18
11 0 8
11 1 11
11 2 71
11 3 78
11 4 43
11 5 51
11 6 80
11 7 50
11 8 12
11 9 66
11 10 15
12 0 70
12 1 64
12 2 72
12 3 77
12 4 15
12 5 79
12 6 79
12 7 5
12 8 26
12 9 99
12 10 66
12 11 1
13 0 18
13 1 56
13 2 75
13 3 88
13 4 75
13 5 98
13 6 78
13 7 49
13 8 39
13 9 98
13 10 14
13 11 98
13 12 62
14 0 96
14 1 89
14 2 93
14 3 82
14 4 5
14 5 1
14 6 95
14 7 19
14 8 90
14 9 26
14 10 29
14 11 30
14 12 95
14 13 68
15 0 98
15 1 58
15 2 75
15 3 78
15 4 62
15 5 53
15 6 69
15 7 78
15 8 78
15 9 65
15 10 2
15 11 52
15 12 64
15 13 32
15 14 19
16 0 97
16 1 43
16 2 13
16 3 88
16 4 26
16 5 58
16 6 34
16 7 15
16 8 90
16 9 86
16 10 61
16 11 57
16 12 46
16 13 81
16 14 100
16 15 44
17 0 86
17 1 27
17 2 94
17 3 29
17 4 20
17 5 75
17 6 87
17 7 30
17 8 60
17 9 8
17 10 37
17 11 36
17 12 59
17 13 49
17 14 26
17 15 95
17 16 96
18 0 96
18 1 3
18 2 94
18 3 14
18 4 76
18 5 29
18 6 13
18 7 57
18 8 28
18 9 34
18 10 98
18 11 52
18 12 62
18 13 7
18 14 99
18 15 38
18 16 66
18 17 60
19 0 68
19 1 39
19 2 42
19 3 52
19 4 91
19 5 32
19 6 2
19 7 56
19 8 27
19 9 58
19 10 56
19 11 18
19 12 67
19 13 70
19 14 64
19 15 21
19 16 29
19 17 30
19 18 48
20 0 67
20 1 58
20 2 82
20 3 72
20 4 46
20 5 7
20 6 77
20 7 45
20 8 24
20 9 94
20 10 23
20 11 1
20 12 14
20 13 87
20 14 81
20 15 61
20 16 79
20 17 43
20 18 32
20 19 90
21 0 84
21 1 13
21 2 91
21 3 81
21 4 13
21 5 88
21 6 46
21 7 59
21 8 5
21 9 40
21 10 24
21 11 67
21 12 72
21 13 95
21 14 48
21 15 75
21 16 17
21 17 36
21 18 10
21 19 45
21 20 52
22 0 20
22 1 79
22 2 17
22 3 85
22 4 58
22 5 34
22 6 18
22 7 40
22 8 4
22 9 71
22 10 98
22 11 11
22 12 31
22 13 30
22 14 55
22 15 70
22 16 7
22 17 54
22 18 88
22 19 86
22 20 97
22 21 58
23 0 8
23 1 25
23 2 37
23 3 79
23 4 85
23 5 23
23 6 83
23 7 36
23 8 5
23 9 64
23 10 11
23 11 16
23 12 91
23 13 18
23 14 24
23 15 68
23 16 73
23 17 90
23 18 8
23 19 71
23 20 45
23 21 5
23 22 10
24 0 11
24 1 31
24 2 36
24 3 66
24 4 72
24 5 44
24 6 32
24 7 86
24 8 43
24 9 17
24 10 11
24 11 62
24 12 80
24 13 33
24 14 30
24 15 80
24 16 79
24 17 90
24 18 45
24 19 35
24 20 64
24 21 81
24 22 10
24 23 85
25 0 73
25 1 58
25 2 1
25 3 97
25 4 6
25 5 25
25 6 44
25 7 60
25 8 76
25 9 81
25 10 92
25 11 84
25 12 66
25 13 98
25 14 80
25 15 95
25 16 86
25 17 6
25 18 53
25 19 99
25 20 79
25 21 26
25 22 41
25 23 88
25 24 38
26 0 75
26 1 29
26 2 88
26 3 10
26 4 17
26 5 54
26 6 90
26 7 4
26 8 61
26 9 11
26 10 12
26 11 43
26 12 3
26 13 65
26 14 65
26 15 19
26 16 81
26 17 89
26 18 55
26 19 30
26 20 86
26 21 88
26 22 8
26 23 23
26 24 38
26 25 61
27 0 23
27 1 68
27 2 37
27 3 34
27 4 85
27 5 32
27 6 34
27 7 46
27 8 82
27 9 39
27 10 92
27 11 76
27 12 31
27 13 17
27 14 19
27 15 58
27 16 83
27 17 83
27 18 6
27 19 96
27 20 72
27 21 19
27 22 5
27 23 94
27 24 31
27 25 25
27 26 6
28 0 63
28 1 96
28 2 67
28 3 23
28 4 66
28 5 42
28 6 41
28 7 93
28 8 1
28 9 58
28 10 38
28 11 38
28 12 57
28 13 35
28 14 76
28 15 52
28 16 81
28 17 29
28 18 14
28 19 9
28 20 27
28 21 20
28 22 100
28 23 11
28 24 4
28 25 78
28 26 85
28 27 14
29 0 23
29 1 21
29 2 23
29 3 1
29 4 13
29 5 4
29 6 43
29 7 3
29 8 61
29 9 91
29 10 37
29 11 68
29 12 91
29 13 92
29 14 32
29 15 37
29 16 99
29 17 66
29 18 23
29 19 88
29 20 87
29 21 27
29 22 82
29 23 41
29 24 83
29 25 4
29 26 83
29 27 37
29 28 31
30 0 29
30 1 96
30 2 46
30 3 92
30 4 73
30 5 45
30 6 56
30 7 82
30 8 45
30 9 33
30 10 49
30 11 46
30 12 19
30 13 82
30 14 73
30 15 51
30 16 62
30 17 31
30 18 55
30 19 21
30 20 78
30 21 4
30 22 25
30 23 71
30 24 81
30 25 30
30 26 42
30 27 17
30 28 76
30 29 77
31 0 35
31 1 38
31 2 3
31 3 43
31 4 10
31 5 46
31 6 71
31 7 2
31 8 85
31 9 88
31 10 90
31 11 14
31 12 47
31 13 65
31 14 82
31 15 24
31 16 48
31 17 65
31 18 25
31 19 32
31 20 81
31 21 28
31 22 55
31 23 4
31 24 14
31 25 9
31 26 48
31 27 37
31 28 54
31 29 87
31 30 28
32 0 22
32 1 79
32 2 41
32 3 5
32 4 64
32 5 72
32 6 9
32 7 22
32 8 37
32 9 23
32 10 72
32 11 57
32 12 96
32 13 90
32 14 48
32 15 32
32 16 79
32 17 49
32 18 93
32 19 4
32 20 55
32 21 59
32 22 22
32 23 53
32 24 9
32 25 21
32 26 12
32 27 81
32 28 85
32 29 18
32 30 55
32 31 97
33 0 95
33 1 57
33 2 58
33 3 56
33 4 93
33 5 50
33 6 21
33 7 49
33 8 64
33 9 15
33 10 29
33 11 4
33 12 71
33 13 67
33 14 50
33 15 11
33 16 72
33 17 42
33 18 17
33 19 90
33 20 78
33 21 76
33 22 40
33 23 84
33 24 47
33 25 19
33 26 72
33 27 15
33 28 5
33 29 72
33 30 30
33 31 51
33 32 51
34 0 60
34 1 43
34 2 81
34 3 93
34 4 100
34 5 76
34 6 81
34 7 10
34 8 9
34 9 57
34 10 17
34 11 45
34 12 57
34 13 93
34 14 36
34 15 72
34 16 93
34 17 77
34 18 20
34 19 87
34 20 57
34 21 96
34 22 15
34 23 28
34 24 79
34 25 1
34 26 61
34 27 16
34 28 33
34 29 8
34 30 82
34 31 60
34 32 76
34 33 31
35 0 7
35 1 1
35 2 12
35 3 69
35 4 42
35 5 54
35 6 45
35 7 91
35 8 5
35 9 83
35 10 19
35 11 8
35 12 97
35 13 37
35 14 58
35 15 13
35 16 78
35 17 7
35 18 53
35 19 23
35 20 51
35 21 86
35 22 58
35 23 69
35 24 95
35 25 63
35 26 96
35 27 13
35 28 96
35 29 54
35 30 78
35 31 78
35 32 46
35 33 70
35 34 96
36 0 29
36 1 43
36 2 70
36 3 48
36 4 48
36 5 83
36 6 48
36 7 79
36 8 73
36 9 40
36 10 56
36 11 73
36 12 5
36 13 79
36 14 47
36 15 31
36 16 10
36 17 31
36 18 19
36 19 94
36 20 50
36 21 50
36 22 63
36 23 18
36 24 38
36 25 3
36 26 63
36 27 12
36 28 100
36 29 89
36 30 2
36 31 75
36 32 68
36 33 72
36 34 65
36 35 14
37 0 67
37 1 72
37 2 43
37 3 24
37 4 55
37 5 62
37 6 84
37 7 47
37 8 16
37 9 62
37 10 44
37 11 67
37 12 46
37 13 17
37 14 29
37 15 91
37 16 56
37 17 2
37 18 41
37 19 14
37 20 84
37 21 11
37 22 54
37 23 95
37 24 14
37 25 98
37 26 98
37 27 75
37 28 12
37 29 88
37 30 21
37 31 6
37 32 46
37 33 81
37 34 51
37 35 91
37 36 49
38 0 2
38 1 89
38 2 48
38 3 29
38 4 83
38 5 96
38 6 35
38 7 61
38 8 84
38 9 63
38 10 15
38 11 83
38 12 69
38 13 71
38 14 42
38 15 2
38 16 11
38 17 77
38 18 99
38 19 81
38 20 91
38 21 93
38 22 15
38 23 52
38 24 5
38 25 37
38 26 38
38 27 88
38 28 5
38 29 76
38 30 61
38 31 22
38 32 28
38 33 87
38 34 1
38 35 91
38 36 100
38 37 9
39 0 99
39 1 62
39 2 10
39 3 55
39 4 81
39 5 50
39 6 94
39 7 22
39 8 99
39 9 33
39 10 73
39 11 4
39 12 45
39 13 43
39 14 41
39 15 97
39 16 100
39 17 75
39 18 89
39 19 65
39 20 75
39 21 38
39 22 10
39 23 81
39 24 43
39 25 50
39 26 33
39 27 88
39 28 70
39 29 52
39 30 69
39 31 35
39 32 100
39 33 80
39 34 70
39 35 64
39 36 47
39 37 39
39 38 38
40 0 89
40 1 9
40 2 49
40 3 33
40 4 65
40 5 92
40 6 68
40 7 60
40 8 39
40 9 8
40 10 12
40 11 44
40 12 56
40 13 14
40 14 24
40 15 27
40 16 32
40 17 72
40 18 61
40 19 21
40 20 32
40 21 57
40 22 4
40 23 31
40 24 11
40 25 51
40 26 4
40 27 22
40 28 17
40 29 100
40 30 35
40 31 74
40 32 44
40 33 13
40 34 94
40 35 86
40 36 95
40 37 27
40 38 85
40 39 91
41 0 3
41 1 84
41 2 74
41 3 7
41 4 99
41 5 81
41 6 99
41 7 39
41 8 39
41 9 95
41 10 76
41 11 98
41 12 31
41 13 84
41 14 25
41 15 6
41 16 6
41 17 26
41 18 28
41 19 1
41 20 48
41 21 51
41 22 68
41 23 73
41 24 68
41 25 61
41 26 24
41 27 74
41 28 70
41 29 60
41 30 29
41 31 1
41 32 71
41 33 28
41 34 96
41 35 33
41 36 58
41 37 19
41 38 81
41 39 78
41 40 94
42 0 62
42 1 45
42 2 67
42 3 11
42 4 93
42 5 19
42 6 79
42 7 52
42 8 51
42 9 87
42 10 8
42 11 39
42 12 23
42 13 54
42 14 95
42 15 98
42 16 3
42 17 48
42 18 81
42 19 52
42 20 8
42 21 82
42 22 69
42 23 66
42 24 88
42 25 74
42 26 91
42 27 19
42 28 79
42 29 93
42 30 8
42 31 11
42 32 19
42 33 95
42 34 12
42 35 53
42 36 27
42 37 53
42 38 96
42 39 93
42 40 93
42 41 99
43 0 3
43 1 63
43 2 43
43 3 33
43 4 83
43 5 63
43 6 76
43 7 67
43 8 16
43 9 24
43 10 93
43 11 10
43 12 79
43 13 87
43 14 49
43 15 9
43 16 53
43 17 25
43 18 10
43 19 4
43 20 22
43 21 70
43 22 95
43 23 63
43 24 95
43 25 30
43 26 30
43 27 3
43 28 51
43 29 22
43 30 52
43 31 8
43 32 90
43 33 19
43 34 30
43 35 14
43 36 51
43 37 29
43 38 100
43 39 18
43 40 14
43 41 35
43 42 24
44 0 5
44 1 7
44 2 55
44 3 24
44 4 45
44 5 82
44 6 18
44 7 52
44 8 70
44 9 27
44 10 55
44 11 96
44 12 45
44 13 43
44 14 52
44 15 29
44 16 89
44 17 76
44 18 22
44 19 50
44 20 19
44 21 16
44 22 79
44 23 91
44 24 12
44 25 75
44 26 34
44 27 66
44 28 10
44 29 18
44 30 39
44 31 96
44 32 29
44 33 16
44 34 50
44 35 43
44 36 11
44 37 27
44 38 85
44 39 24
44 40 76
44 41 41
44 42 98
44 43 96
45 0 26
45 1 37
45 2 3
45 3 32
45 4 22
45 5 36
45 6 5
45 7 27
45 8 44
45 9 53
45 10 25
45 11 7
45 12 88
45 13 84
45 14 34
45 15 26
45 16 71
45 17 72
45 18 38
45 19 76
45 20 48
45 21 43
45 22 54
45 23 50
45 24 63
45 25 10
45 26 88
45 27 17
45 28 72
45 29 78
45 30 13
45 31 23
45 32 32
45 33 9
45 34 85
45 35 13
45 36 39
45 37 15
45 38 58
45 39 23
45 40 43
45 41 95
45 42 89
45 43 23
45 44 93
46 0 51
46 1 42
46 2 83
46 3 81
46 4 15
46 5 17
46 6 95
46 7 81
46 8 93
46 9 89
46 10 83
46 11 22
46 12 18
46 13 15
46 14 80
46 15 19
46 16 42
46 17 45
46 18 54
46 19 62
46 20 26
46 21 54
46 22 6
46 23 45
46 24 8
46 25 75
46 26 76
46 27 58
46 28 47
46 29 98
46 30 44
46 31 8
46 32 83
46 33 66
46 34 86
46 35 19
46 36 66
46 37 92
46 38 36
46 39 32
46 40 25
46 41 62
46 42 74
46 43 14
46 44 93
46 45 15
47 0 18
47 1 25
47 2 14
47 3 2
47 4 5
47 5 33
47 6 84
47 7 67
47 8 93
47 9 56
47 10 14
47 11 8
47 12 10
47 13 61
47 14 11
47 15 10
47 16 19
47 17 80
47 18 10
47 19 54
47 20 14
47 21 100
47 22 20
47 23 42
47 24 30
47 25 38
47 26 48
47 27 100
47 28 37
47 29 15
47 30 25
47 31 40
47 32 75
47 33 90
47 34 47
47 35 5
47 36 18
47 37 20
47 38 97
47 39 16
47 40 100
47 41 38
47 42 24
47 43 97
47 44 23
47 45 90
47 46 85
48 0 54
48 1 37
48 2 70
48 3 80
48 4 30
48 5 73
48 6 19
48 7 35
48 8 60
48 9 41
48 10 3
48 11 8
48 12 95
48 13 55
48 14 87
48 15 41
48 16 86
48 17 30
48 18 44
48 19 56
48 20 20
48 21 58
48 22 94
48 23 90
48 24 75
48 25 79
48 26 46
48 27 11
48 28 20
48 29 83
48 30 93
48 31 47
48 32 77
48 33 15
48 34 88
48 35 46
48 36 39
48 37 82
48 38 85
48 39 23
48 40 83
48 41 61
48 42 45
48 43 80
48 44 44
48 45 76
48 46 22
48 47 92
49 0 31
49 1 86
49 2 88
49 3 5
49 4 4
49 5 99
49 6 67
49 7 87
49 8 34
49 9 7
49 10 69
49 11 23
49 12 27
49 13 14
49 14 65
49 15 48
49 16 79
49 17 88
49 18 35
49 19 56
49 20 85
49 21 66
49 22 70
49 23 44
49 24 42
49 25 97
49 26 31
49 27 57
49 28 86
49 29 99
49 30 80
49 31 50
49 32 81
49 33 60
49 34 34
49 35 100
49 36 42
49 37 13
49 38 28
49 39 4
49 40 45
49 41 71
49 42 65
49 43 74
49 44 84
49 45 89
49 46 92
49 47 2
49 48 53
50 0 3
50 1 45
50 2 47
50 3 72
50 4 46
50 5 45
50 6 91
50 7 95
50 8 65
50 9 24
50 10 43
50 11 49
50 12 67
50 13 31
50 14 97
50 15 6
50 16 73
50 17 47
50 18 80
50 19 92
50 20 67
50 21 89
50 22 36
50 23 61
50 24 62
50 25 7
50 26 30
50 27 13
50 28 21
50 29 88
50 30 78
50 31 30
50 32 3
50 33 25
50 34 34
50 35 44
50 36 30
50 37 19
50 38 87
50 39 72
50 40 77
50 41 15
50 42 43
50 43 83
50 44 59
50 45 96
50 46 10
50 47 83
50 48 43
50 49 85
51 0 9
51 1 22
51 2 8
51 3 20
51 4 53
51 5 74
51 6 63
51 7 20
51 8 5
51 9 31
51 10 50
51 11 40
51 12 89
51 13 18
51 14 28
51 15 94
51 16 100
51 17 28
51 18 2
51 19 84
51 20 69
51 21 15
51 22 36
51 23 71
51 24 51
51 25 8
51 26 78
51 27 88
51 28 61
51 29 33
51 30 73
51 31 40
51 32 61
51 33 52
51 34 57
51 35 94
51 36 85
51 37 60
51 38 41
51 39 22
51 40 49
51 41 92
51 42 38
51 43 46
51 44 83
51 45 40
51 46 94
51 47 25
51 48 87
51 49 73
51 50 17
52 0 52
52 1 83
52 2 19
52 3 23
52 4 75
52 5 46
52 6 50
52 7 42
52 8 48
52 9 98
52 10 67
52 11 45
52 12 77
52 13 19
52 14 93
52 15 97
52 16 23
52 17 17
52 18 16
52 19 39
52 20 66
52 21 40
52 22 31
52 23 58
52 24 55
52 25 36
52 26 78
52 27 92
52 28 88
52 29 86
52 30 89
52 31 84
52 32 100
52 33 76
52 34 70
52 35 88
52 36 61
52 37 77
52 38 83
52 39 75
52 40 93
52 41 43
52 42 23
52 43 5
52 44 78
52 45 57
52 46 92
52 47 64
52 48 5
52 49 77
52 50 4
52 51 65
53 0 82
53 1 72
53 2 96
53 3 85
53 4 9
53 5 37
53 6 11
53 7 76
53 8 85
53 9 29
53 10 92
53 11 65
53 12 5
53 13 81
53 14 87
53 15 43
53 16 60
53 17 57
53 18 68
53 19 99
53 20 52
53 21 80
53 22 8
53 23 62
53 24 77
53 25 36
53 26 67
53 27 40
53 28 59
53 29 28
53 30 89
53 31 80
53 32 12
53 33 49
53 34 97
53 35 83
53 36 83
53 37 85
53 38 60
53 39 53
53 40 95
53 41 81
53 42 39
53 43 60
53 44 88
53 45 11
53 46 66
53 47 50
53 48 40
53 49 51
53 50 98
53 51 22
53 52 6
54 0 43
54 1 39
54 2 68
54 3 9
54 4 96
54 5 51
54 6 43
54 7 68
54 8 58
54 9 78
54 10 95
54 11 58
54 12 72
54 13 43
54 14 3
54 15 27
54 16 76
54 17 20
54 18 73
54 19 15
54 20 25
54 21 74
54 22 100
54 23 53
54 24 53
54 25 16
54 26 13
54 27 44
54 28 71
54 29 33
54 30 32
54 31 33
54 32 13
54 33 80
54 34 20
54 35 42
54 36 38
54 37 33
54 38 14
54 39 19
54 40 71
54 41 67
54 42 57
54 43 16
54 44 33
54 45 84
54 46 67
54 47 3
54 48 94
54 49 13
54 50 21
54 51 96
54 52 59
54 53 65
55 0 36
55 1 32
55 2 50
55 3 99
55 4 69
55 5 32
55 6 62
55 7 46
55 8 84
55 9 42
55 10 100
55 11 87
55 12 40
55 13 22
55 14 27
55 15 96
55 16 12
55 17 46
55 18 76
55 19 74
55 20 38
55 21 20
55 22 4
55 23 47
55 24 61
55 25 32
55 26 2
55 27 15
55 28 10
55 29 90
55 30 83
55 31 47
55 32 32
55 33 20
55 34 1
55 35 77
55 36 78
55 37 24
55 38 95
55 39 59
55 40 92
55 41 21
55 42 42
55 43 50
55 44 75
55 45 13
55 46 73
55 47 60
55 48 3
55 49 65
55 50 81
55 51 85
55 52 33
55 53 84
55 54 28
56 0 85
56 1 26
56 2 27
56 3 34
56 4 9
56 5 65
56 6 84
56 7 89
56 8 59
56 9 53
56 10 16
56 11 44
56 12 47
56 13 12
56 14 37
56 15 56
56 16 85
56 17 23
56 18 72
56 19 91
56 20 25
56 21 81
56 22 39
56 23 23
56 24 22
56 25 51
56 26 22
56 27 80
56 28 94
56 29 41
56 30 40
56 31 9
56 32 10
56 33 48
56 34 39
56 35 82
56 36 16
56 37 20
56 38 47
56 39 55
56 40 91
56 41 58
56 42 69
56 43 53
56 44 81
56 45 49
56 46 26
56 47 41
56 48 73
56 49 80
56 50 55
56 51 4
56 52 85
56 53 15
56 54 23
56 55 58
57 0 96
57 1 6
57 2 27
57 3 46
57 4 40
57 5 65
57 6 78
57 7 3
57 8 38
57 9 49
57 10 97
57 11 90
57 12 43
57 13 6
57 14 66
57 15 34
57 16 16
57 17 90
57 18 14
57 19 24
57 20 72
57 21 61
57 22 28
57 23 40
57 24 40
57 25 1
57 26 26
57 27 34
57 28 55
57 29 29
57 30 26
57 31 75
57 32 54
57 33 99
57 34 98
57 35 22
57 36 52
57 37 96
57 38 89
57 39 10
57 40 27
57 41 79
57 42 45
57 43 45
57 44 17
57 45 41
57 46 88
57 47 43
57 48 40
57 49 64
57 50 13
57 51 65
57 52 70
57 53 5
57 54 99
57 55 32
57 56 21
58 0 43
58 1 79
58 2 23
58 3 51
58 4 56
58 5 91
58 6 84
58 7 66
58 8 30
58 9 3
58 10 7
58 11 87
58 12 4
58 13 4
58 14 61
58 15 19
58 16 2
58 17 87
58 18 64
58 19 30
58 20 22
58 21 61
58 22 56
58 23 35
58 24 61
58 25 96
58 26 94
58 27 24
58 28 16
58 29 56
58 30 76
58 31 2
58 32 78
58 33 88
58 34 88
58 35 26
58 36 4
58 37 82
58 38 94
58 39 43
58 40 59
58 41 96
58 42 55
58 43 70
58 44 34
58 45 38
58 46 12
58 47 81
58 48 93
58 49 25
58 50 88
58 51 81
58 52 14
58 53 76
58 54 92
58 55 84
58 56 18
58 57 4
59 0 19
59 1 22
59 2 95
59 3 18
59 4 99
59 5 64
59 6 80
59 7 44
59 8 14
59 9 8
59 10 45
59 11 24
59 12 10
59 13 75
59 14 97
59 15 62
59 16 56
59 17 40
59 18 91
59 19 25
59 20 36
59 21 46
59 22 22
59 23 3
59 24 71
59 25 11
59 26 45
59 27 2
59 28 10
59 29 18
59 30 18
59 31 26
59 32 38
59 33 35
59 34 98
59 35 47
59 36 88
59 37 26
59 38 15
59 39 1
59 40 47
59 41 38
59 42 6
59 43 46
59 44 15
59 45 72
59 46 95
59 47 56
59 48 35
59 49 81
59 50 32
59 51 61
59 52 7
59 53 50
59 54 51
59 55 41
59 56 70
59 57 48
59 58 89
